(set-logic QF_SLAH)

(declare-datatypes ((data_t 0)) (((c_data_t (sz Int)))))

(declare-heap (Int data_t))

(define-fun hck ((?x Int) (?y Int) (?v Int)) Bool
	(and
		(>= (- ?y ?x) 2) (<= (- ?y ?x) ?v)
		(sep (pto ?x (c_data_t (- ?y ?x))) (blk (+ ?x 1) ?y))
))

(define-fun-rec hls ((?x Int) (?y Int) (?v Int)) Bool
	(or
		(and (= ?x ?y) (_ emp Int data_t))
		(exists ((?w Int)) (sep (hck ?x ?w ?v) (hls ?w ?y ?v)))
))

(declare-const x0 Int)
(declare-const x1 Int)
(declare-const x2 Int)
(declare-const x3 Int)
(declare-const v2 Int)
(declare-const x4 Int)
(declare-const x5 Int)
(declare-const x6 Int)
(declare-const x7 Int)
(declare-const v6 Int)
(declare-const x8 Int)
(declare-const x9 Int)
(declare-const v8 Int)
(declare-const x10 Int)
(declare-const x11 Int)
(declare-const x12 Int)
(declare-const x13 Int)
(declare-const x14 Int)
(declare-const x15 Int)
(declare-const v14 Int)
(declare-const x16 Int)
(declare-const x17 Int)
(declare-const x18 Int)
(declare-const x19 Int)
(declare-const v18 Int)
(declare-const x20 Int)
(declare-const x21 Int)
(declare-const x22 Int)
(declare-const x23 Int)
(declare-const x24 Int)
(declare-const x25 Int)
(declare-const x26 Int)
(declare-const x27 Int)
(declare-const x28 Int)
(declare-const x29 Int)
(declare-const v28 Int)
(declare-const x30 Int)
(declare-const x31 Int)
(declare-const x32 Int)
(declare-const x33 Int)
(declare-const x34 Int)
(declare-const x35 Int)
(declare-const x36 Int)
(declare-const x37 Int)
(declare-const x38 Int)
(declare-const x39 Int)
(declare-const v38 Int)
(declare-const x40 Int)
(declare-const x41 Int)
(declare-const v40 Int)
(declare-const x42 Int)
(declare-const x43 Int)
(declare-const x44 Int)
(declare-const x45 Int)
(declare-const x46 Int)
(declare-const x47 Int)
(declare-const v46 Int)
(declare-const x48 Int)
(declare-const x49 Int)
(declare-const x50 Int)
(declare-const x51 Int)
(declare-const v50 Int)
(declare-const x52 Int)
(declare-const x53 Int)
(declare-const x54 Int)
(declare-const x55 Int)
(declare-const v54 Int)
(declare-const x56 Int)
(declare-const x57 Int)
(declare-const v56 Int)
(declare-const x58 Int)
(declare-const x59 Int)
(declare-const x60 Int)
(declare-const x61 Int)
(declare-const v60 Int)
(declare-const x62 Int)
(declare-const x63 Int)
(declare-const x64 Int)
(declare-const x65 Int)
(declare-const v64 Int)
(declare-const x66 Int)
(declare-const x67 Int)
(declare-const x68 Int)
(declare-const x69 Int)
(declare-const x70 Int)
(declare-const x71 Int)
(declare-const x72 Int)
(declare-const x73 Int)
(declare-const x74 Int)
(declare-const x75 Int)
(declare-const v74 Int)
(declare-const x76 Int)
(declare-const x77 Int)
(declare-const x78 Int)
(declare-const x79 Int)
(declare-const x80 Int)
(declare-const x81 Int)
(declare-const x82 Int)
(declare-const x83 Int)
(declare-const x84 Int)
(declare-const x85 Int)
(declare-const x86 Int)
(declare-const x87 Int)
(declare-const x88 Int)
(declare-const x89 Int)
(declare-const x90 Int)
(declare-const x91 Int)
(declare-const v90 Int)
(declare-const x92 Int)
(declare-const x93 Int)
(declare-const v92 Int)
(declare-const x94 Int)
(declare-const x95 Int)
(declare-const x96 Int)
(declare-const x97 Int)
(declare-const x98 Int)
(declare-const x99 Int)
(declare-const x100 Int)
(declare-const x101 Int)
(declare-const x102 Int)
(declare-const x103 Int)
(declare-const x104 Int)
(declare-const x105 Int)
(declare-const v104 Int)
(declare-const x106 Int)
(declare-const x107 Int)
(declare-const x108 Int)
(declare-const x109 Int)
(declare-const x110 Int)
(declare-const x111 Int)
(declare-const v110 Int)
(declare-const x112 Int)
(declare-const x113 Int)
(declare-const v112 Int)
(declare-const x114 Int)
(declare-const x115 Int)
(declare-const x116 Int)
(declare-const x117 Int)
(declare-const x118 Int)
(declare-const x119 Int)
(declare-const x120 Int)
(declare-const x121 Int)
(declare-const v120 Int)
(declare-const x122 Int)
(declare-const x123 Int)
(declare-const x124 Int)
(declare-const x125 Int)
(declare-const x126 Int)
(declare-const x127 Int)
(declare-const v126 Int)
(declare-const x128 Int)
(declare-const x129 Int)
(declare-const v128 Int)
(declare-const x130 Int)
(declare-const x131 Int)
(declare-const v130 Int)
(declare-const x132 Int)
(declare-const x133 Int)
(declare-const x134 Int)
(declare-const x135 Int)
(declare-const x136 Int)
(declare-const x137 Int)
(declare-const x138 Int)
(declare-const x139 Int)
(declare-const x140 Int)
(declare-const x141 Int)
(declare-const x142 Int)
(declare-const x143 Int)
(declare-const x144 Int)
(declare-const x145 Int)
(declare-const x146 Int)
(declare-const x147 Int)
(declare-const x148 Int)
(declare-const x149 Int)
(declare-const v148 Int)
(declare-const x150 Int)
(declare-const x151 Int)
(declare-const x152 Int)
(declare-const x153 Int)
(declare-const x154 Int)
(declare-const x155 Int)
(declare-const x156 Int)
(declare-const x157 Int)
(declare-const v156 Int)
(declare-const x158 Int)
(declare-const x159 Int)
(declare-const v158 Int)

(assert(and
(distinct x59 x103) (< x31 x42) (= x24 x120) (distinct x22 x130) (< x118 x36) (distinct x11 x116) (distinct x57 x64) 
(sep
(blk x0 x1)
(hls x2 x3 v2)
(pto x4 (c_data_t x5))
(hls x6 x7 v6)
(hls x8 x9 v8)
(pto x10 (c_data_t x11))
(blk x12 x13)
(hls x14 x15 v14)
(pto x16 (c_data_t x17))
(hls x18 x19 v18)
(pto x20 (c_data_t x21))
(pto x22 (c_data_t x23))
(pto x24 (c_data_t x25))
(pto x26 (c_data_t x27))
(hls x28 x29 v28)
(blk x30 x31)
(pto x32 (c_data_t x33))
(blk x34 x35)
(blk x36 x37)
(hls x38 x39 v38)
(hls x40 x41 v40)
(blk x42 x43)
(blk x44 x45)
(hls x46 x47 v46)
(pto x48 (c_data_t x49))
(hls x50 x51 v50)
(blk x52 x53)
(hls x54 x55 v54)
(hls x56 x57 v56)
(blk x58 x59)
(hls x60 x61 v60)
(pto x62 (c_data_t x63))
(hls x64 x65 v64)
(pto x66 (c_data_t x67))
(pto x68 (c_data_t x69))
(blk x70 x71)
(blk x72 x73)
(hls x74 x75 v74)
(blk x76 x77)
(pto x78 (c_data_t x79))
(blk x80 x81)
(blk x82 x83)
(pto x84 (c_data_t x85))
(blk x86 x87)
(blk x88 x89)
(hls x90 x91 v90)
(hls x92 x93 v92)
(blk x94 x95)
(pto x96 (c_data_t x97))
(blk x98 x99)
(blk x100 x101)
(blk x102 x103)
(hls x104 x105 v104)
(pto x106 (c_data_t x107))
(pto x108 (c_data_t x109))
(hls x110 x111 v110)
(hls x112 x113 v112)
(pto x114 (c_data_t x115))
(blk x116 x117)
(blk x118 x119)
(hls x120 x121 v120)
(blk x122 x123)
(blk x124 x125)
(hls x126 x127 v126)
(hls x128 x129 v128)
(hls x130 x131 v130)
(pto x132 (c_data_t x133))
(blk x134 x135)
(pto x136 (c_data_t x137))
(blk x138 x139)
(blk x140 x141)
(blk x142 x143)
(blk x144 x145)
(blk x146 x147)
(hls x148 x149 v148)
(pto x150 (c_data_t x151))
(pto x152 (c_data_t x153))
(pto x154 (c_data_t x155))
(hls x156 x157 v156)
(hls x158 x159 v158)
)))

(check-sat)